c Sudoku solution
p cnf 729 0
167 0
229 0
261 0
354 0
365 0
396 0
452 0
523 0
536 0
574 0
581 0
615 0
678 0
699 0
794 0
851 0
868 0
569 0
928 0
788 0
931 0
771 0
191 0
298 0
945 0
555 0
158 0
983 0
493 0
895 0
992 0
762 0
663 0
597 0
682 0
512 0
548 0
637 0
447 0
641 0
464 0
656 0
421 0
624 0
311 0
338 0
418 0
439 0
844 0
966 0
914 0
253 0
373 0
743 0
735 0
125 0
116 0
133 0
234 0
322 0
217 0
184 0
246 0
272 0
179 0
285 0
387 0
142 0
349 0
813 0
832 0
719 0
726 0
827 0
757 0
959 0
977 0
475 0
486 0
876 0
889 0
